\ Model Linear_Programming_Example
\ LP format - for model browsing. Use MPS format to capture full model detail.
Maximize
  ABCDE
Subject To
 Rel_AB: AB <= 1
 Rel_BC: BC <= 1
 Rel_CD: CD <= 1
 Rel_DE: DE <= 1
 Rel_E: E <= 1
 fd_A->E: - A + AE = 0
 Monotonicity: - BCDE + ABCDE >= 0
 Monotonicity: - ACDE + ABCDE >= 0
 Monotonicity: - ABDE + ABCDE >= 0
 Monotonicity: - ABCE + ABCDE >= 0
 Monotonicity: - ABCD + ABCDE >= 0
 Submodularity: - C + AC + BC - ABC >= 0
 Submodularity: - D + AD + BD - ABD >= 0
 Submodularity: - E + AE + BE - ABE >= 0
 Submodularity: - CD + ACD + BCD - ABCD >= 0
 Submodularity: - CE + ACE + BCE - ABCE >= 0
 Submodularity: - DE + ADE + BDE - ABDE >= 0
 Submodularity: - CDE + ACDE + BCDE - ABCDE >= 0
 Submodularity: - B + AB + BC - ABC >= 0
 Submodularity: - D + AD + CD - ACD >= 0
 Submodularity: - E + AE + CE - ACE >= 0
 Submodularity: - BD + ABD + BCD - ABCD >= 0
 Submodularity: - BE + ABE + BCE - ABCE >= 0
 Submodularity: - DE + ADE + CDE - ACDE >= 0
 Submodularity: - BDE + ABDE + BCDE - ABCDE >= 0
 Submodularity: - B + AB + BD - ABD >= 0
 Submodularity: - C + AC + CD - ACD >= 0
 Submodularity: - E + AE + DE - ADE >= 0
 Submodularity: - BC + ABC + BCD - ABCD >= 0
 Submodularity: - BE + ABE + BDE - ABDE >= 0
 Submodularity: - CE + ACE + CDE - ACDE >= 0
 Submodularity: - BCE + ABCE + BCDE - ABCDE >= 0
 Submodularity: - B + AB + BE - ABE >= 0
 Submodularity: - C + AC + CE - ACE >= 0
 Submodularity: - D + AD + DE - ADE >= 0
 Submodularity: - BC + ABC + BCE - ABCE >= 0
 Submodularity: - BD + ABD + BDE - ABDE >= 0
 Submodularity: - CD + ACD + CDE - ACDE >= 0
 Submodularity: - BCD + ABCD + BCDE - ABCDE >= 0
 Submodularity: - A + AB + AC - ABC >= 0
 Submodularity: - D + BD + CD - BCD >= 0
 Submodularity: - E + BE + CE - BCE >= 0
 Submodularity: - AD + ABD + ACD - ABCD >= 0
 Submodularity: - AE + ABE + ACE - ABCE >= 0
 Submodularity: - DE + BDE + CDE - BCDE >= 0
 Submodularity: - ADE + ABDE + ACDE - ABCDE >= 0
 Submodularity: - A + AB + AD - ABD >= 0
 Submodularity: - C + BC + CD - BCD >= 0
 Submodularity: - E + BE + DE - BDE >= 0
 Submodularity: - AC + ABC + ACD - ABCD >= 0
 Submodularity: - AE + ABE + ADE - ABDE >= 0
 Submodularity: - CE + BCE + CDE - BCDE >= 0
 Submodularity: - ACE + ABCE + ACDE - ABCDE >= 0
 Submodularity: - A + AB + AE - ABE >= 0
 Submodularity: - C + BC + CE - BCE >= 0
 Submodularity: - D + BD + DE - BDE >= 0
 Submodularity: - AC + ABC + ACE - ABCE >= 0
 Submodularity: - AD + ABD + ADE - ABDE >= 0
 Submodularity: - CD + BCD + CDE - BCDE >= 0
 Submodularity: - ACD + ABCD + ACDE - ABCDE >= 0
 Submodularity: - A + AC + AD - ACD >= 0
 Submodularity: - B + BC + BD - BCD >= 0
 Submodularity: - E + CE + DE - CDE >= 0
 Submodularity: - AB + ABC + ABD - ABCD >= 0
 Submodularity: - AE + ACE + ADE - ACDE >= 0
 Submodularity: - BE + BCE + BDE - BCDE >= 0
 Submodularity: - ABE + ABCE + ABDE - ABCDE >= 0
 Submodularity: - A + AC + AE - ACE >= 0
 Submodularity: - B + BC + BE - BCE >= 0
 Submodularity: - D + CD + DE - CDE >= 0
 Submodularity: - AB + ABC + ABE - ABCE >= 0
 Submodularity: - AD + ACD + ADE - ACDE >= 0
 Submodularity: - BD + BCD + BDE - BCDE >= 0
 Submodularity: - ABD + ABCD + ABDE - ABCDE >= 0
 Submodularity: - A + AD + AE - ADE >= 0
 Submodularity: - B + BD + BE - BDE >= 0
 Submodularity: - C + CD + CE - CDE >= 0
 Submodularity: - AB + ABD + ABE - ABDE >= 0
 Submodularity: - AC + ACD + ACE - ACDE >= 0
 Submodularity: - BC + BCD + BCE - BCDE >= 0
 Submodularity: - ABC + ABCD + ABCE - ABCDE >= 0
 Subadditivity: A + B - AB >= 0
 Subadditivity: A + C - AC >= 0
 Subadditivity: A + D - AD >= 0
 Subadditivity: A + E - AE >= 0
 Subadditivity: B + C - BC >= 0
 Subadditivity: B + D - BD >= 0
 Subadditivity: B + E - BE >= 0
 Subadditivity: C + D - CD >= 0
 Subadditivity: C + E - CE >= 0
 Subadditivity: D + E - DE >= 0
Bounds
 A <= 1
 B <= 1
 C <= 1
 D <= 1
 E <= 1
 AB <= 2
 AC <= 2
 AD <= 2
 AE <= 2
 BC <= 2
 BD <= 2
 BE <= 2
 CD <= 2
 CE <= 2
 DE <= 2
 ABC <= 3
 ABD <= 3
 ABE <= 3
 ACD <= 3
 ACE <= 3
 ADE <= 3
 BCD <= 3
 BCE <= 3
 BDE <= 3
 CDE <= 3
 ABCD <= 4
 ABCE <= 4
 ABDE <= 4
 ACDE <= 4
 BCDE <= 4
 ABCDE <= 5
End
